seed= 2052018 ;
N= 10 ;
M= 2 ;
F= 2 ;
K= 3 ;
T= 42 ;

p=[ 4 4 4 4 4 10 10 10 10 10 ];
r=[ 1 5 6 11 3 9 8 7 7 6 ];
d=[ 10 7 8 14 7 14 0 16 12 3 ];
s=[ 1 1 1 1 1 1 1 1 1 1 ];
w=[ 4 2 3 2 5 5 2 4 5 3 ];
f=[ 1 1 1 1 1 2 2 2 2 2 ];

e1=[ 10 10 10 10 10 10 10 10 10 10 10 10 10 10 10 10 10 10 10 10 10 8 8 8 8 8 8 8 8 8 8 8 8 8 8 8 8 8 8 8 8 8 ];
e2=[ 10 10 10 10 10 10 10 10 10 10 10 10 10 10 9 9 9 9 9 9 9 8 8 8 8 8 8 8 8 8 8 8 8 8 8 9 9 9 9 9 9 9 ];